flow=[(1,6,1)(5,0,0)(5,1,0)(5,2,0)(5,6,0)(5,10,0)(5,11,0)(5,12,0)(5,13,0)(6,1,5)(6,5,1)(6,10,2)(6,11,8)(10,4,3)(10,6,2)(10,9,2)(11,5,1)(11,6,5)(11,10,2)(11,12,1)(12,1,2)(12,5,4)(12,6,2)(12,11,4)(12,13,3)];
